(set-option :produce-models true)
(set-logic QF_LRA)
(set-info :notes | Strip-packing problem.|)
(declare-fun x0 () Real)
(declare-fun y0 () Real)
(declare-fun x1 () Real)
(declare-fun y1 () Real)
(declare-fun x2 () Real)
(declare-fun y2 () Real)
(declare-fun x3 () Real)
(declare-fun y3 () Real)
(declare-fun x4 () Real)
(declare-fun y4 () Real)
(declare-fun x5 () Real)
(declare-fun y5 () Real)
(declare-fun x6 () Real)
(declare-fun y6 () Real)
(declare-fun x7 () Real)
(declare-fun y7 () Real)
(declare-fun x8 () Real)
(declare-fun y8 () Real)
(declare-fun z () Real)
(declare-fun c () Real)
(assert (and (= c z) (and (>= x0 0) 
(and (>= y0 0) 
(and (>= x1 0) 
(and (>= y1 0) 
(and (>= x2 0) 
(and (>= y2 0) 
(and (>= x3 0) 
(and (>= y3 0) 
(and (>= x4 0) 
(and (>= y4 0) 
(and (>= x5 0) 
(and (>= y5 0) 
(and (>= x6 0) 
(and (>= y6 0) 
(and (>= x7 0) 
(and (>= y7 0) 
(and (>= x8 0) 
(and (>= y8 0) 
(and (>= z 0) 
(and (>= c 0) 
(and (<= (+ x0 0.9626700544) z) 
(and (<= 0.9956084749 y0) 
(and (<= y0 1.5) 
(and (<= x0 (- 2.5791447126 0.9626700544)) 
(and (>= x0 0) 
(and (<= (+ x1 0.2438999883) z) 
(and (<= 0.7386750763 y1) 
(and (<= y1 1.5) 
(and (<= x1 (- 2.5791447126 0.2438999883)) 
(and (>= x1 0) 
(and (<= (+ x2 0.0065498601) z) 
(and (<= 0.6814816383 y2) 
(and (<= y2 1.5) 
(and (<= x2 (- 2.5791447126 0.0065498601)) 
(and (>= x2 0) 
(and (<= (+ x3 0.8033674847) z) 
(and (<= 0.5012756224 y3) 
(and (<= y3 1.5) 
(and (<= x3 (- 2.5791447126 0.8033674847)) 
(and (>= x3 0) 
(and (<= (+ x4 0.3913975943) z) 
(and (<= 0.4550977428 y4) 
(and (<= y4 1.5) 
(and (<= x4 (- 2.5791447126 0.3913975943)) 
(and (>= x4 0) 
(and (<= (+ x5 0.2743768295) z) 
(and (<= 0.3969584538 y5) 
(and (<= y5 1.5) 
(and (<= x5 (- 2.5791447126 0.2743768295)) 
(and (>= x5 0) 
(and (<= (+ x6 0.4485563431) z) 
(and (<= 0.2607242587 y6) 
(and (<= y6 1.5) 
(and (<= x6 (- 2.5791447126 0.4485563431)) 
(and (>= x6 0) 
(and (<= (+ x7 0.5326207325) z) 
(and (<= 0.1089985751 y7) 
(and (<= y7 1.5) 
(and (<= x7 (- 2.5791447126 0.5326207325)) 
(and (>= x7 0) 
(and (<= (+ x8 0.2684688696) z) 
(and (<= 0.0859382095 y8) 
(and (<= y8 1.5) 
(and (<= x8 (- 2.5791447126 0.2684688696)) 
(and (>= x8 0) 
(and (<= c 2.5791447126) 
(and (or (<= (+ x0 0.9626700544) x1) (or (<= (+ x1 0.2438999883) x0) (or (>= (- y0 0.9956084749) y1) (or (>= (- y1 0.7386750763) y0))))) 
(and (or (<= (+ x0 0.9626700544) x2) (or (<= (+ x2 0.0065498601) x0) (or (>= (- y0 0.9956084749) y2) (or (>= (- y2 0.6814816383) y0))))) 
(and (or (<= (+ x0 0.9626700544) x3) (or (<= (+ x3 0.8033674847) x0) (or (>= (- y0 0.9956084749) y3) (or (>= (- y3 0.5012756224) y0))))) 
(and (or (<= (+ x0 0.9626700544) x4) (or (<= (+ x4 0.3913975943) x0) (or (>= (- y0 0.9956084749) y4) (or (>= (- y4 0.4550977428) y0))))) 
(and (or (<= (+ x0 0.9626700544) x5) (or (<= (+ x5 0.2743768295) x0) (or (>= (- y0 0.9956084749) y5) (or (>= (- y5 0.3969584538) y0))))) 
(and (or (<= (+ x0 0.9626700544) x6) (or (<= (+ x6 0.4485563431) x0) (or (>= (- y0 0.9956084749) y6) (or (>= (- y6 0.2607242587) y0))))) 
(and (or (<= (+ x0 0.9626700544) x7) (or (<= (+ x7 0.5326207325) x0) (or (>= (- y0 0.9956084749) y7) (or (>= (- y7 0.1089985751) y0))))) 
(and (or (<= (+ x0 0.9626700544) x8) (or (<= (+ x8 0.2684688696) x0) (or (>= (- y0 0.9956084749) y8) (or (>= (- y8 0.0859382095) y0))))) 
(and (or (<= (+ x1 0.2438999883) x2) (or (<= (+ x2 0.0065498601) x1) (or (>= (- y1 0.7386750763) y2) (or (>= (- y2 0.6814816383) y1))))) 
(and (or (<= (+ x1 0.2438999883) x3) (or (<= (+ x3 0.8033674847) x1) (or (>= (- y1 0.7386750763) y3) (or (>= (- y3 0.5012756224) y1))))) 
(and (or (<= (+ x1 0.2438999883) x4) (or (<= (+ x4 0.3913975943) x1) (or (>= (- y1 0.7386750763) y4) (or (>= (- y4 0.4550977428) y1))))) 
(and (or (<= (+ x1 0.2438999883) x5) (or (<= (+ x5 0.2743768295) x1) (or (>= (- y1 0.7386750763) y5) (or (>= (- y5 0.3969584538) y1))))) 
(and (or (<= (+ x1 0.2438999883) x6) (or (<= (+ x6 0.4485563431) x1) (or (>= (- y1 0.7386750763) y6) (or (>= (- y6 0.2607242587) y1))))) 
(and (or (<= (+ x1 0.2438999883) x7) (or (<= (+ x7 0.5326207325) x1) (or (>= (- y1 0.7386750763) y7) (or (>= (- y7 0.1089985751) y1))))) 
(and (or (<= (+ x1 0.2438999883) x8) (or (<= (+ x8 0.2684688696) x1) (or (>= (- y1 0.7386750763) y8) (or (>= (- y8 0.0859382095) y1))))) 
(and (or (<= (+ x2 0.0065498601) x3) (or (<= (+ x3 0.8033674847) x2) (or (>= (- y2 0.6814816383) y3) (or (>= (- y3 0.5012756224) y2))))) 
(and (or (<= (+ x2 0.0065498601) x4) (or (<= (+ x4 0.3913975943) x2) (or (>= (- y2 0.6814816383) y4) (or (>= (- y4 0.4550977428) y2))))) 
(and (or (<= (+ x2 0.0065498601) x5) (or (<= (+ x5 0.2743768295) x2) (or (>= (- y2 0.6814816383) y5) (or (>= (- y5 0.3969584538) y2))))) 
(and (or (<= (+ x2 0.0065498601) x6) (or (<= (+ x6 0.4485563431) x2) (or (>= (- y2 0.6814816383) y6) (or (>= (- y6 0.2607242587) y2))))) 
(and (or (<= (+ x2 0.0065498601) x7) (or (<= (+ x7 0.5326207325) x2) (or (>= (- y2 0.6814816383) y7) (or (>= (- y7 0.1089985751) y2))))) 
(and (or (<= (+ x2 0.0065498601) x8) (or (<= (+ x8 0.2684688696) x2) (or (>= (- y2 0.6814816383) y8) (or (>= (- y8 0.0859382095) y2))))) 
(and (or (<= (+ x3 0.8033674847) x4) (or (<= (+ x4 0.3913975943) x3) (or (>= (- y3 0.5012756224) y4) (or (>= (- y4 0.4550977428) y3))))) 
(and (or (<= (+ x3 0.8033674847) x5) (or (<= (+ x5 0.2743768295) x3) (or (>= (- y3 0.5012756224) y5) (or (>= (- y5 0.3969584538) y3))))) 
(and (or (<= (+ x3 0.8033674847) x6) (or (<= (+ x6 0.4485563431) x3) (or (>= (- y3 0.5012756224) y6) (or (>= (- y6 0.2607242587) y3))))) 
(and (or (<= (+ x3 0.8033674847) x7) (or (<= (+ x7 0.5326207325) x3) (or (>= (- y3 0.5012756224) y7) (or (>= (- y7 0.1089985751) y3))))) 
(and (or (<= (+ x3 0.8033674847) x8) (or (<= (+ x8 0.2684688696) x3) (or (>= (- y3 0.5012756224) y8) (or (>= (- y8 0.0859382095) y3))))) 
(and (or (<= (+ x4 0.3913975943) x5) (or (<= (+ x5 0.2743768295) x4) (or (>= (- y4 0.4550977428) y5) (or (>= (- y5 0.3969584538) y4))))) 
(and (or (<= (+ x4 0.3913975943) x6) (or (<= (+ x6 0.4485563431) x4) (or (>= (- y4 0.4550977428) y6) (or (>= (- y6 0.2607242587) y4))))) 
(and (or (<= (+ x4 0.3913975943) x7) (or (<= (+ x7 0.5326207325) x4) (or (>= (- y4 0.4550977428) y7) (or (>= (- y7 0.1089985751) y4))))) 
(and (or (<= (+ x4 0.3913975943) x8) (or (<= (+ x8 0.2684688696) x4) (or (>= (- y4 0.4550977428) y8) (or (>= (- y8 0.0859382095) y4))))) 
(and (or (<= (+ x5 0.2743768295) x6) (or (<= (+ x6 0.4485563431) x5) (or (>= (- y5 0.3969584538) y6) (or (>= (- y6 0.2607242587) y5))))) 
(and (or (<= (+ x5 0.2743768295) x7) (or (<= (+ x7 0.5326207325) x5) (or (>= (- y5 0.3969584538) y7) (or (>= (- y7 0.1089985751) y5))))) 
(and (or (<= (+ x5 0.2743768295) x8) (or (<= (+ x8 0.2684688696) x5) (or (>= (- y5 0.3969584538) y8) (or (>= (- y8 0.0859382095) y5))))) 
(and (or (<= (+ x6 0.4485563431) x7) (or (<= (+ x7 0.5326207325) x6) (or (>= (- y6 0.2607242587) y7) (or (>= (- y7 0.1089985751) y6))))) 
(and (or (<= (+ x6 0.4485563431) x8) (or (<= (+ x8 0.2684688696) x6) (or (>= (- y6 0.2607242587) y8) (or (>= (- y8 0.0859382095) y6))))) 
(and (or (<= (+ x7 0.5326207325) x8) (or (<= (+ x8 0.2684688696) x7) (or (>= (- y7 0.1089985751) y8) (or (>= (- y8 0.0859382095) y7))))) ))))))))))))))))))))))))))))))))))))))))))))))))))))))))))))))))))))))))))))))))))))))))))))))))))))))))
(minimize c)
(check-sat)
(get-objectives)
(exit)
